65 94 
10 66 
22 14 
85 64 
35 25 
19 6 
22 97 
55 94 
42 86 
95 33 
78 40 
71 74 
72 79 
89 19 
81 35 
93 99 
29 3 
17 4 
70 54 
20 5 
32 39 
63 54 
88 19 
1 30 
57 96 
15 36 
36 86 
62 61 
17 51 
80 51 
38 73 
2 67 
29 19 
23 99 
25 43 
56 57 
34 19 
12 22 
38 13 
4 48 
61 19 
84 98 
58 98 
11 75 
1 91 
26 39 
65 80 
58 46 
99 34 
45 77 
